\ Model qkp01
\ LP format - for model browsing. Use MPS format to capture full model detail.
Maximize
  26 x_8 + 40 x_9 + 36 x_10 + 36 x_11 + 42 x_12 + x_15 + 32 x_24 + 50 x_25
   + 4 x_27 + 41 x_30 + 11 x_31 + 3 x_32 + 49 x_34 + 42 x_38 + 18 x_41
   + 48 x_60 + 31 x_66 + 8 x_68 + 15 x_70 + 49 x_77 + 7 x_82 + 5 x_85
   + 28 x_89 + 22 x_91 + 9 x_98 + [ 12 x_1 * x_2 + 74 x_1 * x_6
   + 84 x_1 * x_12 + 94 x_1 * x_14 + 90 x_1 * x_20 + 68 x_1 * x_23
   + 48 x_1 * x_24 + 2 x_1 * x_26 + 24 x_1 * x_27 + 64 x_1 * x_28
   + 90 x_1 * x_30 + 92 x_1 * x_36 + 28 x_1 * x_40 + 52 x_1 * x_49
   + 90 x_1 * x_50 + 2 x_1 * x_51 + 18 x_1 * x_53 + 40 x_1 * x_60
   + 4 x_1 * x_63 + 36 x_1 * x_64 + 20 x_1 * x_65 + 58 x_1 * x_72
   + 78 x_1 * x_75 + 78 x_1 * x_78 + 32 x_1 * x_86 + 10 x_1 * x_93
   + 60 x_1 * x_94 + 42 x_1 * x_99 + 38 x_2 * x_14 + 18 x_2 * x_15
   + 24 x_2 * x_21 + 78 x_2 * x_24 + 36 x_2 * x_26 + 70 x_2 * x_35
   + 54 x_2 * x_38 + 2 x_2 * x_42 + 62 x_2 * x_46 + 48 x_2 * x_59
   + 6 x_2 * x_60 + 46 x_2 * x_65 + 58 x_2 * x_66 + 40 x_2 * x_67
   + 28 x_2 * x_69 + 90 x_2 * x_70 + 32 x_2 * x_71 + 66 x_2 * x_72
   + 64 x_2 * x_80 + 90 x_2 * x_85 + 50 x_3 * x_4 + 60 x_3 * x_5
   + 80 x_3 * x_10 + 18 x_3 * x_16 + 94 x_3 * x_17 + 86 x_3 * x_18
   + 64 x_3 * x_25 + 48 x_3 * x_27 + 88 x_3 * x_29 + 30 x_3 * x_32
   + 32 x_3 * x_34 + 86 x_3 * x_35 + 78 x_3 * x_41 + 14 x_3 * x_45
   + 38 x_3 * x_50 + 66 x_3 * x_51 + 92 x_3 * x_59 + 66 x_3 * x_62
   + 52 x_3 * x_69 + 10 x_3 * x_70 + 38 x_3 * x_77 + 52 x_3 * x_80
   + 94 x_3 * x_83 + 14 x_3 * x_84 + 36 x_3 * x_87 + 82 x_3 * x_88
   + 14 x_3 * x_93 + 30 x_4 * x_14 + 12 x_4 * x_18 + 100 x_4 * x_19
   + 92 x_4 * x_26 + 100 x_4 * x_27 + 76 x_4 * x_28 + 50 x_4 * x_30
   + 66 x_4 * x_31 + 52 x_4 * x_32 + 68 x_4 * x_33 + 70 x_4 * x_35
   + 10 x_4 * x_46 + 96 x_4 * x_48 + 52 x_4 * x_59 + 86 x_4 * x_63
   + 60 x_4 * x_64 + 44 x_4 * x_65 + 58 x_4 * x_67 + 6 x_4 * x_68
   + 46 x_4 * x_73 + 48 x_4 * x_80 + 46 x_4 * x_81 + 64 x_4 * x_87
   + 40 x_4 * x_88 + 4 x_4 * x_93 + 26 x_4 * x_96 + 36 x_5 * x_6
   + 64 x_5 * x_12 + 2 x_5 * x_15 + 84 x_5 * x_20 + 94 x_5 * x_23
   + 98 x_5 * x_25 + 4 x_5 * x_27 + 46 x_5 * x_28 + 72 x_5 * x_32
   + 54 x_5 * x_36 + 20 x_5 * x_37 + 10 x_5 * x_45 + 72 x_5 * x_52
   + 92 x_5 * x_61 + 74 x_5 * x_62 + 46 x_5 * x_76 + 46 x_5 * x_78
   + 18 x_5 * x_81 + 98 x_5 * x_87 + 78 x_5 * x_99 + 94 x_6 * x_9
   + 6 x_6 * x_11 + 44 x_6 * x_19 + 88 x_6 * x_22 + 26 x_6 * x_31
   + 64 x_6 * x_42 + 64 x_6 * x_56 + 96 x_6 * x_61 + 36 x_6 * x_62
   + 2 x_6 * x_64 + 2 x_6 * x_67 + 66 x_6 * x_68 + 100 x_6 * x_74
   + 12 x_6 * x_79 + 60 x_6 * x_80 + 100 x_6 * x_82 + 94 x_6 * x_91
   + 50 x_6 * x_95 + 94 x_6 * x_99 + 2 x_6 * x_100 + 88 x_7 * x_9
   + 10 x_7 * x_16 + 96 x_7 * x_17 + 24 x_7 * x_18 + 76 x_7 * x_21
   + 60 x_7 * x_30 + 10 x_7 * x_34 + 30 x_7 * x_40 + 60 x_7 * x_42
   + 70 x_7 * x_50 + 96 x_7 * x_51 + 86 x_7 * x_58 + 24 x_7 * x_63
   + 42 x_7 * x_66 + 4 x_7 * x_72 + 32 x_7 * x_73 + 78 x_7 * x_76
   + 76 x_7 * x_78 + 52 x_7 * x_80 + 74 x_7 * x_86 + 34 x_7 * x_87
   + 72 x_7 * x_89 + 46 x_7 * x_92 + 98 x_7 * x_97 + 10 x_7 * x_99
   + 8 x_7 * x_100 + 96 x_8 * x_14 + 16 x_8 * x_17 + 60 x_8 * x_20
   + 42 x_8 * x_21 + 32 x_8 * x_26 + 80 x_8 * x_28 + 38 x_8 * x_31
   + 52 x_8 * x_35 + 72 x_8 * x_37 + 14 x_8 * x_38 + 44 x_8 * x_40
   + 34 x_8 * x_44 + 16 x_8 * x_51 + 80 x_8 * x_57 + 54 x_8 * x_62
   + 40 x_8 * x_63 + 4 x_8 * x_64 + 82 x_8 * x_72 + 38 x_8 * x_79
   + 70 x_8 * x_80 + 68 x_8 * x_81 + 26 x_8 * x_89 + 12 x_8 * x_92
   + 96 x_8 * x_94 + 76 x_8 * x_98 + 6 x_9 * x_15 + 24 x_9 * x_17
   + 42 x_9 * x_21 + 76 x_9 * x_25 + 56 x_9 * x_31 + 2 x_9 * x_32
   + 40 x_9 * x_36 + 14 x_9 * x_40 + 66 x_9 * x_42 + 88 x_9 * x_43
   + 10 x_9 * x_54 + 42 x_9 * x_58 + 8 x_9 * x_59 + 78 x_9 * x_60
   + 80 x_9 * x_61 + 34 x_9 * x_62 + 64 x_9 * x_63 + 12 x_9 * x_64
   + 70 x_9 * x_66 + 12 x_9 * x_70 + 58 x_9 * x_71 + 56 x_9 * x_79
   + 88 x_9 * x_80 + 96 x_9 * x_84 + 22 x_9 * x_85 + 24 x_9 * x_86
   + 68 x_9 * x_92 + 52 x_9 * x_93 + 38 x_9 * x_95 + 84 x_9 * x_98
   + 32 x_9 * x_99 + 16 x_9 * x_100 + 46 x_10 * x_12 + 26 x_10 * x_17
   + 76 x_10 * x_23 + 84 x_10 * x_26 + 100 x_10 * x_27 + 14 x_10 * x_35
   + 86 x_10 * x_39 + 76 x_10 * x_41 + 66 x_10 * x_48 + 22 x_10 * x_50
   + 34 x_10 * x_56 + 68 x_10 * x_59 + 14 x_10 * x_66 + 58 x_10 * x_70
   + 60 x_10 * x_71 + 92 x_10 * x_74 + 30 x_10 * x_77 + 48 x_10 * x_79
   + 16 x_10 * x_80 + 62 x_10 * x_81 + 78 x_10 * x_83 + 26 x_10 * x_84
   + 64 x_10 * x_90 + 48 x_10 * x_93 + 26 x_10 * x_94 + 12 x_10 * x_97
   + 82 x_11 * x_13 + 24 x_11 * x_20 + 84 x_11 * x_24 + 8 x_11 * x_29
   + 78 x_11 * x_31 + 60 x_11 * x_39 + 64 x_11 * x_49 + 48 x_11 * x_50
   + 32 x_11 * x_53 + 46 x_11 * x_62 + 58 x_11 * x_64 + 48 x_11 * x_72
   + 68 x_11 * x_73 + 6 x_11 * x_74 + 66 x_11 * x_76 + 20 x_11 * x_77
   + 2 x_11 * x_78 + 18 x_12 * x_16 + 56 x_12 * x_19 + 46 x_12 * x_23
   + 24 x_12 * x_31 + 56 x_12 * x_34 + 82 x_12 * x_36 + 44 x_12 * x_37
   + 96 x_12 * x_39 + 54 x_12 * x_41 + 42 x_12 * x_43 + 90 x_12 * x_45
   + 94 x_12 * x_51 + 92 x_12 * x_54 + 92 x_12 * x_55 + 32 x_12 * x_58
   + 20 x_12 * x_60 + 26 x_12 * x_65 + 12 x_12 * x_66 + 56 x_12 * x_75
   + 90 x_12 * x_76 + 66 x_12 * x_79 + 26 x_12 * x_81 + 90 x_13 * x_14
   + 24 x_13 * x_17 + 34 x_13 * x_26 + 56 x_13 * x_29 + 16 x_13 * x_30
   + 14 x_13 * x_37 + 18 x_13 * x_39 + 24 x_13 * x_49 + 14 x_13 * x_51
   + 84 x_13 * x_58 + 26 x_13 * x_60 + 86 x_13 * x_62 + 28 x_13 * x_63
   + 40 x_13 * x_66 + 94 x_13 * x_74 + 10 x_13 * x_75 + 68 x_13 * x_81
   + 42 x_13 * x_82 + 64 x_13 * x_83 + 70 x_13 * x_87 + 62 x_13 * x_88
   + 8 x_13 * x_92 + 92 x_13 * x_93 + 86 x_14 * x_17 + 18 x_14 * x_23
   + 76 x_14 * x_25 + 18 x_14 * x_37 + 50 x_14 * x_39 + 88 x_14 * x_45
   + 2 x_14 * x_47 + 100 x_14 * x_50 + 18 x_14 * x_55 + 66 x_14 * x_59
   + 70 x_14 * x_63 + 80 x_14 * x_65 + 38 x_14 * x_71 + 60 x_14 * x_74
   + 44 x_14 * x_77 + 56 x_14 * x_85 + 60 x_14 * x_88 + 36 x_14 * x_90
   + 86 x_14 * x_99 + 76 x_15 * x_20 + 44 x_15 * x_21 + 38 x_15 * x_22
   + 10 x_15 * x_23 + 36 x_15 * x_37 + 72 x_15 * x_39 + 32 x_15 * x_40
   + 26 x_15 * x_53 + 16 x_15 * x_54 + 12 x_15 * x_57 + 48 x_15 * x_58
   + 52 x_15 * x_60 + 12 x_15 * x_61 + 32 x_15 * x_74 + 46 x_15 * x_82
   + 92 x_15 * x_84 + 76 x_15 * x_89 + 66 x_15 * x_91 + 10 x_15 * x_92
   + 8 x_16 * x_19 + 12 x_16 * x_25 + 20 x_16 * x_28 + 30 x_16 * x_30
   + 100 x_16 * x_31 + 36 x_16 * x_33 + 70 x_16 * x_35 + 82 x_16 * x_36
   + 18 x_16 * x_40 + 98 x_16 * x_45 + 8 x_16 * x_50 + 46 x_16 * x_58
   + 14 x_16 * x_67 + 98 x_16 * x_70 + 36 x_16 * x_72 + 50 x_16 * x_73
   + 88 x_16 * x_74 + 32 x_16 * x_81 + 6 x_16 * x_90 + 8 x_16 * x_91
   + 52 x_16 * x_93 + 36 x_16 * x_95 + 10 x_16 * x_99 + 38 x_17 * x_27
   + 76 x_17 * x_31 + 54 x_17 * x_32 + 4 x_17 * x_36 + 96 x_17 * x_39
   + 46 x_17 * x_47 + 44 x_17 * x_51 + 52 x_17 * x_56 + 44 x_17 * x_60
   + 58 x_17 * x_62 + 8 x_17 * x_69 + 28 x_17 * x_71 + 58 x_17 * x_73
   + 88 x_17 * x_74 + 28 x_17 * x_79 + 2 x_17 * x_83 + 88 x_17 * x_87
   + 28 x_17 * x_89 + 86 x_17 * x_92 + 24 x_17 * x_96 + 42 x_18 * x_20
   + 76 x_18 * x_22 + 82 x_18 * x_25 + 72 x_18 * x_26 + 84 x_18 * x_29
   + 68 x_18 * x_35 + 8 x_18 * x_38 + 22 x_18 * x_44 + 88 x_18 * x_46
   + 28 x_18 * x_54 + 84 x_18 * x_57 + 24 x_18 * x_61 + 58 x_18 * x_62
   + 38 x_18 * x_65 + 72 x_18 * x_73 + 20 x_18 * x_82 + 48 x_18 * x_86
   + 80 x_18 * x_87 + 6 x_18 * x_88 + 72 x_18 * x_89 + 58 x_18 * x_90
   + 4 x_18 * x_93 + 100 x_18 * x_96 + 18 x_19 * x_21 + 8 x_19 * x_22
   + 40 x_19 * x_26 + 98 x_19 * x_30 + 38 x_19 * x_33 + 42 x_19 * x_35
   + 100 x_19 * x_41 + 84 x_19 * x_42 + 54 x_19 * x_43 + 84 x_19 * x_47
   + 66 x_19 * x_49 + 88 x_19 * x_53 + 60 x_19 * x_55 + 10 x_19 * x_59
   + 36 x_19 * x_66 + 10 x_19 * x_68 + 14 x_19 * x_71 + 30 x_19 * x_75
   + 48 x_19 * x_82 + 86 x_19 * x_87 + 92 x_19 * x_94 + 4 x_19 * x_100
   + 54 x_20 * x_21 + 62 x_20 * x_23 + 30 x_20 * x_26 + 100 x_20 * x_28
   + 16 x_20 * x_31 + 64 x_20 * x_32 + 78 x_20 * x_34 + 84 x_20 * x_39
   + 50 x_20 * x_42 + 72 x_20 * x_46 + 46 x_20 * x_47 + 36 x_20 * x_52
   + 10 x_20 * x_54 + 64 x_20 * x_67 + 22 x_20 * x_68 + 38 x_20 * x_71
   + 2 x_20 * x_72 + 100 x_20 * x_80 + 60 x_20 * x_83 + 54 x_20 * x_92
   + 78 x_20 * x_94 + 22 x_20 * x_96 + 58 x_20 * x_97 + 70 x_21 * x_22
   + 36 x_21 * x_23 + 88 x_21 * x_24 + 50 x_21 * x_28 + 68 x_21 * x_33
   + 76 x_21 * x_38 + 78 x_21 * x_41 + 80 x_21 * x_45 + 90 x_21 * x_49
   + 2 x_21 * x_59 + 74 x_21 * x_65 + 52 x_21 * x_68 + 50 x_21 * x_69
   + 30 x_21 * x_70 + 28 x_21 * x_78 + 98 x_21 * x_80 + 34 x_21 * x_81
   + 56 x_21 * x_87 + 62 x_21 * x_92 + 62 x_21 * x_97 + 40 x_21 * x_100
   + 50 x_22 * x_27 + 48 x_22 * x_29 + 14 x_22 * x_34 + 60 x_22 * x_38
   + 70 x_22 * x_47 + 100 x_22 * x_48 + 24 x_22 * x_50 + 92 x_22 * x_51
   + 24 x_22 * x_58 + 36 x_22 * x_65 + 26 x_22 * x_69 + 18 x_22 * x_71
   + 20 x_22 * x_73 + 46 x_22 * x_75 + 24 x_22 * x_79 + 42 x_22 * x_83
   + 92 x_22 * x_96 + 98 x_23 * x_25 + 50 x_23 * x_30 + 70 x_23 * x_31
   + 2 x_23 * x_33 + 8 x_23 * x_35 + 20 x_23 * x_41 + 48 x_23 * x_43
   + 70 x_23 * x_45 + 82 x_23 * x_49 + 28 x_23 * x_54 + 98 x_23 * x_57
   + 90 x_23 * x_70 + 92 x_23 * x_76 + 66 x_23 * x_77 + 30 x_23 * x_78
   + 38 x_23 * x_85 + 36 x_23 * x_97 + 38 x_23 * x_99 + 14 x_24 * x_26
   + 44 x_24 * x_28 + 96 x_24 * x_30 + 26 x_24 * x_34 + 36 x_24 * x_39
   + 82 x_24 * x_41 + 28 x_24 * x_50 + 100 x_24 * x_57 + 6 x_24 * x_66
   + 86 x_24 * x_67 + 84 x_24 * x_68 + 64 x_24 * x_71 + 82 x_24 * x_85
   + 58 x_24 * x_96 + 40 x_24 * x_98 + 76 x_25 * x_32 + 64 x_25 * x_39
   + 82 x_25 * x_40 + 64 x_25 * x_41 + 24 x_25 * x_43 + 86 x_25 * x_45
   + 84 x_25 * x_53 + 66 x_25 * x_58 + 28 x_25 * x_59 + 38 x_25 * x_67
   + 62 x_25 * x_71 + 100 x_25 * x_79 + 26 x_25 * x_80 + 16 x_25 * x_81
   + 60 x_25 * x_83 + 28 x_25 * x_86 + 36 x_25 * x_88 + 8 x_25 * x_89
   + 86 x_25 * x_94 + 66 x_26 * x_28 + 44 x_26 * x_29 + 52 x_26 * x_31
   + 78 x_26 * x_37 + 24 x_26 * x_38 + 84 x_26 * x_39 + 80 x_26 * x_40
   + 2 x_26 * x_45 + 46 x_26 * x_46 + 58 x_26 * x_58 + 40 x_26 * x_69
   + 76 x_26 * x_70 + 78 x_26 * x_72 + 26 x_26 * x_77 + 20 x_26 * x_79
   + 20 x_26 * x_81 + 46 x_26 * x_82 + 16 x_26 * x_84 + 92 x_26 * x_88
   + 52 x_26 * x_97 + 26 x_26 * x_98 + 48 x_27 * x_29 + 14 x_27 * x_36
   + 8 x_27 * x_37 + 2 x_27 * x_44 + 44 x_27 * x_46 + 54 x_27 * x_51
   + 60 x_27 * x_57 + 38 x_27 * x_58 + 26 x_27 * x_64 + 82 x_27 * x_72
   + 16 x_27 * x_74 + 6 x_27 * x_80 + 26 x_27 * x_85 + 92 x_27 * x_90
   + 6 x_27 * x_91 + 32 x_27 * x_96 + 72 x_27 * x_98 + 2 x_27 * x_99
   + 86 x_28 * x_33 + 48 x_28 * x_37 + 90 x_28 * x_38 + 52 x_28 * x_39
   + 46 x_28 * x_40 + 32 x_28 * x_46 + 48 x_28 * x_54 + 88 x_28 * x_56
   + 8 x_28 * x_58 + 28 x_28 * x_59 + 2 x_28 * x_62 + 28 x_28 * x_63
   + 6 x_28 * x_66 + 96 x_28 * x_74 + 66 x_28 * x_84 + 6 x_28 * x_85
   + 98 x_28 * x_94 + 14 x_28 * x_100 + 32 x_29 * x_35 + 66 x_29 * x_41
   + 2 x_29 * x_49 + 62 x_29 * x_50 + 24 x_29 * x_52 + 6 x_29 * x_53
   + 36 x_29 * x_56 + 16 x_29 * x_64 + 50 x_29 * x_79 + 36 x_29 * x_82
   + 78 x_29 * x_84 + 58 x_30 * x_32 + 98 x_30 * x_35 + 98 x_30 * x_37
   + 6 x_30 * x_43 + 52 x_30 * x_56 + 20 x_30 * x_58 + 70 x_30 * x_59
   + 20 x_30 * x_62 + 28 x_30 * x_71 + 2 x_30 * x_75 + 22 x_30 * x_77
   + 86 x_30 * x_83 + 62 x_30 * x_91 + 76 x_30 * x_94 + 96 x_30 * x_95
   + 40 x_30 * x_97 + 94 x_31 * x_33 + 8 x_31 * x_35 + 10 x_31 * x_40
   + 68 x_31 * x_42 + 16 x_31 * x_43 + 26 x_31 * x_44 + 78 x_31 * x_45
   + 46 x_31 * x_54 + 70 x_31 * x_55 + 48 x_31 * x_64 + 54 x_31 * x_65
   + 48 x_31 * x_66 + 66 x_31 * x_69 + 10 x_31 * x_76 + 8 x_31 * x_77
   + 64 x_31 * x_80 + 28 x_31 * x_83 + 46 x_31 * x_90 + 66 x_31 * x_96
   + 100 x_31 * x_100 + 82 x_32 * x_34 + 32 x_32 * x_38 + 6 x_32 * x_39
   + 2 x_32 * x_40 + 96 x_32 * x_47 + 78 x_32 * x_48 + 92 x_32 * x_50
   + 60 x_32 * x_52 + 56 x_32 * x_59 + 54 x_32 * x_61 + 76 x_32 * x_66
   + 32 x_32 * x_67 + 50 x_32 * x_68 + 94 x_32 * x_75 + 22 x_32 * x_78
   + 20 x_32 * x_91 + 70 x_32 * x_92 + 26 x_33 * x_37 + 74 x_33 * x_41
   + 8 x_33 * x_44 + 88 x_33 * x_45 + 100 x_33 * x_51 + 50 x_33 * x_56
   + 42 x_33 * x_70 + 40 x_33 * x_72 + 94 x_33 * x_73 + 72 x_33 * x_77
   + 90 x_33 * x_78 + 80 x_33 * x_81 + 94 x_33 * x_93 + 2 x_33 * x_97
   + 40 x_33 * x_98 + 12 x_33 * x_99 + 26 x_33 * x_100 + 22 x_34 * x_49
   + 64 x_34 * x_51 + 8 x_34 * x_52 + 82 x_34 * x_54 + 80 x_34 * x_57
   + 30 x_34 * x_60 + 90 x_34 * x_63 + 24 x_34 * x_67 + 72 x_34 * x_74
   + 4 x_34 * x_76 + 50 x_34 * x_82 + 88 x_34 * x_87 + 26 x_34 * x_89
   + 24 x_34 * x_91 + 6 x_34 * x_93 + 98 x_34 * x_94 + 96 x_34 * x_96
   + 58 x_34 * x_100 + 72 x_35 * x_43 + 12 x_35 * x_53 + 62 x_35 * x_56
   + 56 x_35 * x_69 + 58 x_35 * x_70 + 24 x_35 * x_76 + 22 x_35 * x_82
   + 78 x_35 * x_87 + 32 x_35 * x_90 + 60 x_35 * x_91 + 74 x_35 * x_94
   + 60 x_35 * x_96 + 24 x_35 * x_97 + 14 x_36 * x_42 + 26 x_36 * x_43
   + 4 x_36 * x_46 + 12 x_36 * x_48 + 78 x_36 * x_55 + 66 x_36 * x_56
   + 50 x_36 * x_57 + 6 x_36 * x_61 + 54 x_36 * x_66 + 100 x_36 * x_67
   + 30 x_36 * x_73 + 54 x_36 * x_75 + 88 x_36 * x_80 + 4 x_36 * x_86
   + 50 x_36 * x_87 + 20 x_36 * x_89 + 46 x_36 * x_91 + 48 x_36 * x_93
   + 52 x_36 * x_96 + 72 x_36 * x_100 + 20 x_37 * x_46 + 94 x_37 * x_47
   + 18 x_37 * x_48 + 18 x_37 * x_51 + 18 x_37 * x_55 + 26 x_37 * x_60
   + 88 x_37 * x_61 + 60 x_37 * x_72 + 86 x_37 * x_74 + 32 x_37 * x_82
   + 36 x_37 * x_87 + 68 x_37 * x_97 + 64 x_37 * x_98 + 14 x_38 * x_40
   + 88 x_38 * x_41 + 52 x_38 * x_44 + 48 x_38 * x_46 + 6 x_38 * x_47
   + 28 x_38 * x_50 + 6 x_38 * x_58 + 18 x_38 * x_62 + 50 x_38 * x_64
   + 24 x_38 * x_65 + 40 x_38 * x_66 + 42 x_38 * x_68 + 24 x_38 * x_73
   + 66 x_38 * x_79 + 22 x_38 * x_83 + 80 x_38 * x_86 + 36 x_38 * x_88
   + 34 x_38 * x_91 + 18 x_38 * x_93 + 66 x_38 * x_99 + 64 x_38 * x_100
   + 24 x_39 * x_45 + 72 x_39 * x_46 + 40 x_39 * x_47 + 72 x_39 * x_54
   + 74 x_39 * x_55 + 72 x_39 * x_56 + 8 x_39 * x_57 + 34 x_39 * x_58
   + 22 x_39 * x_63 + 10 x_39 * x_68 + 84 x_39 * x_72 + 88 x_39 * x_73
   + 50 x_39 * x_75 + 52 x_39 * x_76 + 44 x_39 * x_79 + 10 x_39 * x_83
   + 22 x_39 * x_85 + 98 x_39 * x_89 + 78 x_39 * x_92 + 8 x_39 * x_96
   + 82 x_39 * x_99 + 64 x_40 * x_41 + 30 x_40 * x_48 + 60 x_40 * x_56
   + 86 x_40 * x_57 + 94 x_40 * x_60 + 10 x_40 * x_68 + 92 x_40 * x_69
   + 26 x_40 * x_70 + 68 x_40 * x_75 + 36 x_40 * x_79 + 74 x_40 * x_81
   + 4 x_40 * x_85 + 60 x_40 * x_92 + 40 x_40 * x_95 + 34 x_40 * x_97
   + 40 x_40 * x_99 + 46 x_41 * x_48 + 56 x_41 * x_62 + 38 x_41 * x_65
   + 98 x_41 * x_69 + 48 x_41 * x_72 + 20 x_41 * x_75 + 88 x_41 * x_78
   + 72 x_41 * x_79 + 56 x_41 * x_86 + 66 x_41 * x_87 + 68 x_41 * x_89
   + 82 x_41 * x_91 + 70 x_41 * x_97 + 82 x_41 * x_99 + 84 x_41 * x_100
   + 40 x_42 * x_49 + 60 x_42 * x_50 + 80 x_42 * x_51 + 84 x_42 * x_52
   + 26 x_42 * x_53 + 86 x_42 * x_54 + 64 x_42 * x_60 + 70 x_42 * x_67
   + 68 x_42 * x_69 + 58 x_42 * x_70 + 84 x_42 * x_71 + 54 x_42 * x_72
   + 94 x_42 * x_75 + 92 x_42 * x_76 + 2 x_42 * x_78 + 56 x_42 * x_84
   + 84 x_42 * x_85 + 80 x_42 * x_87 + 90 x_42 * x_93 + 84 x_42 * x_94
   + 52 x_42 * x_95 + 58 x_42 * x_98 + 68 x_43 * x_47 + 20 x_43 * x_53
   + 10 x_43 * x_54 + 98 x_43 * x_56 + 52 x_43 * x_57 + 34 x_43 * x_66
   + 46 x_43 * x_69 + 24 x_43 * x_71 + 42 x_43 * x_95 + 16 x_44 * x_46
   + 50 x_44 * x_55 + 82 x_44 * x_57 + 58 x_44 * x_60 + 18 x_44 * x_63
   + 72 x_44 * x_64 + 20 x_44 * x_66 + 44 x_44 * x_67 + 48 x_44 * x_70
   + 30 x_44 * x_74 + 12 x_44 * x_78 + 66 x_44 * x_81 + 44 x_44 * x_83
   + 100 x_44 * x_86 + 42 x_44 * x_89 + 2 x_44 * x_96 + 30 x_44 * x_99
   + 72 x_45 * x_48 + 62 x_45 * x_49 + 12 x_45 * x_53 + 32 x_45 * x_58
   + 56 x_45 * x_59 + 44 x_45 * x_62 + 16 x_45 * x_64 + 2 x_45 * x_67
   + 42 x_45 * x_68 + 80 x_45 * x_70 + 58 x_45 * x_79 + 80 x_45 * x_85
   + 6 x_45 * x_86 + 56 x_45 * x_96 + 72 x_46 * x_50 + 72 x_46 * x_51
   + 2 x_46 * x_54 + 26 x_46 * x_61 + 72 x_46 * x_67 + 48 x_46 * x_68
   + 38 x_46 * x_70 + 12 x_46 * x_73 + 64 x_46 * x_75 + 32 x_46 * x_78
   + 44 x_46 * x_79 + 88 x_46 * x_84 + 66 x_46 * x_85 + 62 x_46 * x_86
   + 12 x_46 * x_88 + 12 x_46 * x_90 + 24 x_46 * x_92 + 4 x_46 * x_93
   + 2 x_46 * x_95 + 56 x_46 * x_96 + 38 x_47 * x_49 + 72 x_47 * x_51
   + 76 x_47 * x_52 + 22 x_47 * x_54 + 68 x_47 * x_62 + 32 x_47 * x_75
   + 54 x_47 * x_76 + 72 x_47 * x_82 + 2 x_47 * x_83 + 80 x_47 * x_86
   + 82 x_47 * x_87 + 8 x_47 * x_88 + 84 x_47 * x_90 + 96 x_47 * x_91
   + 12 x_48 * x_55 + 64 x_48 * x_56 + 38 x_48 * x_72 + 40 x_48 * x_77
   + 94 x_48 * x_80 + 64 x_48 * x_86 + 18 x_48 * x_87 + 88 x_48 * x_88
   + 8 x_48 * x_89 + 100 x_48 * x_94 + 88 x_48 * x_99 + 52 x_49 * x_53
   + 42 x_49 * x_71 + 72 x_49 * x_72 + 40 x_49 * x_90 + 80 x_49 * x_93
   + 28 x_49 * x_94 + 54 x_49 * x_96 + 30 x_49 * x_100 + 4 x_50 * x_51
   + 82 x_50 * x_62 + 34 x_50 * x_70 + 26 x_50 * x_73 + 64 x_50 * x_74
   + 74 x_50 * x_76 + 84 x_50 * x_93 + 90 x_51 * x_52 + 16 x_51 * x_55
   + 32 x_51 * x_56 + 64 x_51 * x_61 + 92 x_51 * x_62 + 70 x_51 * x_64
   + 30 x_51 * x_74 + 72 x_51 * x_82 + 32 x_51 * x_85 + 34 x_51 * x_89
   + 22 x_51 * x_91 + 96 x_51 * x_92 + 70 x_51 * x_93 + 52 x_51 * x_96
   + 8 x_51 * x_97 + 4 x_52 * x_53 + 42 x_52 * x_54 + 4 x_52 * x_55
   + 64 x_52 * x_58 + 56 x_52 * x_77 + 96 x_52 * x_80 + 52 x_52 * x_81
   + 10 x_52 * x_83 + 80 x_52 * x_84 + 34 x_52 * x_89 + 12 x_52 * x_96
   + 84 x_52 * x_98 + 16 x_52 * x_100 + 38 x_53 * x_54 + 68 x_53 * x_58
   + 66 x_53 * x_69 + 96 x_53 * x_76 + 16 x_53 * x_77 + 34 x_53 * x_82
   + 44 x_53 * x_88 + 62 x_53 * x_97 + 70 x_54 * x_60 + 46 x_54 * x_65
   + 38 x_54 * x_68 + 46 x_54 * x_69 + 34 x_54 * x_70 + 96 x_54 * x_73
   + 8 x_54 * x_80 + 24 x_54 * x_86 + 78 x_54 * x_88 + 66 x_54 * x_89
   + 36 x_54 * x_90 + 84 x_54 * x_91 + 90 x_55 * x_58 + 46 x_55 * x_61
   + 6 x_55 * x_63 + 46 x_55 * x_64 + 94 x_55 * x_67 + 10 x_55 * x_83
   + 6 x_55 * x_84 + 98 x_55 * x_85 + 86 x_55 * x_86 + 14 x_55 * x_90
   + 6 x_55 * x_96 + 60 x_56 * x_63 + 26 x_56 * x_64 + 82 x_56 * x_70
   + 86 x_56 * x_73 + 22 x_56 * x_75 + 46 x_56 * x_78 + 82 x_56 * x_79
   + 94 x_56 * x_82 + 86 x_56 * x_83 + 88 x_56 * x_87 + 58 x_56 * x_90
   + 34 x_56 * x_91 + 98 x_57 * x_64 + 40 x_57 * x_73 + 44 x_57 * x_76
   + 10 x_57 * x_78 + 54 x_57 * x_83 + 44 x_57 * x_91 + 6 x_57 * x_93
   + 50 x_57 * x_98 + 34 x_57 * x_100 + 60 x_58 * x_60 + 94 x_58 * x_64
   + 78 x_58 * x_70 + 100 x_58 * x_72 + 2 x_58 * x_74 + 50 x_58 * x_75
   + 92 x_58 * x_76 + 92 x_58 * x_83 + 92 x_58 * x_84 + 28 x_58 * x_89
   + 60 x_58 * x_92 + 92 x_58 * x_95 + 90 x_58 * x_98 + 46 x_59 * x_61
   + 6 x_59 * x_64 + 24 x_59 * x_66 + 68 x_59 * x_69 + 28 x_59 * x_72
   + 82 x_59 * x_84 + 84 x_59 * x_85 + 70 x_59 * x_87 + 56 x_59 * x_88
   + 88 x_59 * x_91 + 86 x_59 * x_93 + 82 x_59 * x_97 + 60 x_59 * x_99
   + 30 x_59 * x_100 + 46 x_60 * x_61 + 76 x_60 * x_63 + 24 x_60 * x_66
   + 6 x_60 * x_69 + 68 x_60 * x_70 + 70 x_60 * x_73 + 34 x_60 * x_75
   + 16 x_60 * x_91 + 40 x_60 * x_100 + 68 x_61 * x_63 + 44 x_61 * x_66
   + 24 x_61 * x_72 + 56 x_61 * x_75 + 50 x_61 * x_79 + 38 x_61 * x_82
   + 78 x_61 * x_84 + 12 x_61 * x_85 + 52 x_61 * x_89 + 68 x_61 * x_91
   + 10 x_61 * x_92 + 86 x_61 * x_98 + 34 x_62 * x_65 + 78 x_62 * x_78
   + 82 x_62 * x_82 + 78 x_62 * x_83 + 58 x_62 * x_84 + 32 x_62 * x_90
   + 12 x_62 * x_94 + 16 x_62 * x_96 + 60 x_63 * x_70 + 72 x_63 * x_71
   + 52 x_63 * x_72 + 54 x_63 * x_73 + 16 x_63 * x_77 + 30 x_63 * x_84
   + 44 x_63 * x_88 + 14 x_63 * x_91 + 46 x_63 * x_98 + 8 x_64 * x_67
   + 18 x_64 * x_68 + 70 x_64 * x_76 + 92 x_64 * x_81 + 92 x_64 * x_82
   + 84 x_64 * x_86 + 98 x_64 * x_87 + 86 x_64 * x_90 + 92 x_64 * x_93
   + 54 x_64 * x_97 + 10 x_64 * x_99 + 24 x_65 * x_69 + 54 x_65 * x_70
   + 74 x_65 * x_72 + 26 x_65 * x_75 + 8 x_65 * x_80 + 40 x_65 * x_83
   + 52 x_65 * x_89 + 44 x_65 * x_93 + 62 x_65 * x_94 + 86 x_66 * x_69
   + 50 x_66 * x_76 + 26 x_66 * x_85 + 94 x_66 * x_87 + 84 x_66 * x_98
   + 86 x_67 * x_68 + 12 x_67 * x_70 + 52 x_67 * x_75 + 68 x_67 * x_77
   + 92 x_67 * x_78 + 34 x_67 * x_79 + 98 x_67 * x_80 + 64 x_67 * x_84
   + 34 x_67 * x_85 + 82 x_67 * x_89 + 84 x_67 * x_90 + 58 x_67 * x_99
   + 96 x_68 * x_70 + 92 x_68 * x_72 + 26 x_68 * x_75 + 6 x_68 * x_76
   + 50 x_68 * x_77 + 36 x_68 * x_78 + 44 x_68 * x_79 + 22 x_68 * x_81
   + 4 x_68 * x_89 + 80 x_68 * x_97 + 20 x_69 * x_71 + 60 x_69 * x_82
   + 74 x_69 * x_84 + 72 x_69 * x_85 + 10 x_69 * x_86 + 26 x_69 * x_90
   + 48 x_69 * x_93 + 52 x_69 * x_99 + 96 x_70 * x_75 + 10 x_70 * x_76
   + 36 x_70 * x_79 + 74 x_70 * x_87 + 34 x_70 * x_90 + 82 x_70 * x_91
   + 32 x_70 * x_97 + 12 x_71 * x_72 + 40 x_71 * x_73 + 56 x_71 * x_85
   + 76 x_71 * x_91 + 76 x_71 * x_92 + 42 x_71 * x_93 + 18 x_71 * x_97
   + 40 x_72 * x_78 + 20 x_72 * x_79 + 58 x_72 * x_80 + 96 x_72 * x_82
   + 20 x_72 * x_83 + 58 x_72 * x_84 + 10 x_72 * x_86 + 34 x_72 * x_99
   + 16 x_73 * x_80 + 54 x_73 * x_86 + 66 x_73 * x_94 + 98 x_73 * x_95
   + 8 x_74 * x_78 + 6 x_74 * x_85 + 8 x_74 * x_88 + 74 x_74 * x_96
   + 40 x_74 * x_99 + 74 x_74 * x_100 + 58 x_75 * x_77 + 44 x_75 * x_86
   + 42 x_75 * x_93 + 90 x_75 * x_98 + 30 x_76 * x_80 + 94 x_76 * x_85
   + 10 x_76 * x_88 + 24 x_77 * x_79 + 20 x_77 * x_81 + 18 x_77 * x_88
   + 26 x_77 * x_90 + 34 x_77 * x_91 + 8 x_78 * x_83 + 72 x_78 * x_84
   + 38 x_78 * x_90 + 12 x_78 * x_91 + 24 x_78 * x_98 + 72 x_79 * x_86
   + 26 x_79 * x_91 + 28 x_79 * x_96 + 40 x_79 * x_97 + 42 x_79 * x_100
   + 80 x_80 * x_82 + 80 x_80 * x_83 + 12 x_80 * x_85 + 38 x_80 * x_86
   + 82 x_80 * x_87 + 38 x_80 * x_91 + 56 x_81 * x_87 + 44 x_81 * x_91
   + 60 x_81 * x_92 + 60 x_81 * x_95 + 40 x_81 * x_98 + 54 x_82 * x_84
   + 20 x_82 * x_86 + 34 x_82 * x_87 + 16 x_82 * x_92 + 30 x_82 * x_93
   + 90 x_82 * x_94 + 56 x_82 * x_96 + 48 x_83 * x_95 + 32 x_84 * x_90
   + 64 x_84 * x_97 + 88 x_85 * x_87 + 8 x_85 * x_88 + 48 x_85 * x_89
   + 38 x_85 * x_93 + 78 x_85 * x_95 + 82 x_85 * x_98 + 98 x_86 * x_91
   + 4 x_86 * x_92 + 8 x_86 * x_93 + 48 x_86 * x_94 + 36 x_87 * x_92
   + 70 x_87 * x_97 + 98 x_87 * x_99 + 80 x_87 * x_100 + 24 x_88 * x_89
   + 76 x_88 * x_95 + 72 x_88 * x_97 + 4 x_89 * x_96 + 66 x_89 * x_97
   + 30 x_90 * x_94 + 64 x_90 * x_95 + 14 x_90 * x_97 + 28 x_90 * x_100
   + 42 x_91 * x_92 + 58 x_91 * x_95 + 78 x_91 * x_96 + 16 x_91 * x_97
   + 98 x_91 * x_100 + 38 x_93 * x_96 + 72 x_93 * x_98 + 10 x_95 * x_100
   + 20 x_97 * x_99 + 90 x_98 * x_99 ] / 2 
Subject To
 R0: 2 x_1 + 2 x_2 + 5 x_3 + 10 x_4 + 23 x_5 + 7 x_6 + 3 x_7 + 22 x_8
   + 17 x_9 + 19 x_10 + 2 x_11 + x_12 + 17 x_13 + 6 x_14 + 12 x_15 + 7 x_16
   + 24 x_17 + 15 x_18 + 24 x_19 + 12 x_20 + 17 x_21 + x_22 + 10 x_23
   + 23 x_24 + 21 x_25 + 25 x_26 + 6 x_27 + 9 x_28 + 24 x_29 + x_30 + x_31
   + 4 x_32 + 9 x_33 + x_34 + 23 x_35 + 6 x_36 + 9 x_37 + 14 x_38 + 11 x_39
   + 13 x_40 + 20 x_41 + x_42 + 2 x_43 + 16 x_44 + 23 x_45 + x_46 + 6 x_47
   + 21 x_48 + 13 x_49 + 20 x_50 + 10 x_51 + 2 x_52 + 18 x_53 + 5 x_54
   + 6 x_55 + 25 x_56 + 4 x_57 + 23 x_58 + 23 x_59 + 3 x_60 + 8 x_61
   + 23 x_62 + x_63 + 17 x_64 + 17 x_65 + 19 x_66 + 20 x_67 + 7 x_68
   + 5 x_69 + 14 x_70 + 5 x_71 + 8 x_72 + 21 x_73 + 20 x_74 + 11 x_75
   + 4 x_76 + 3 x_77 + 13 x_78 + 13 x_79 + 15 x_80 + 17 x_81 + 14 x_82
   + 14 x_83 + 9 x_84 + x_85 + 8 x_86 + 25 x_87 + 17 x_88 + 7 x_89 + 9 x_90
   + 25 x_91 + 16 x_92 + 17 x_93 + 18 x_94 + 13 x_95 + 3 x_96 + 21 x_97
   + 17 x_98 + 6 x_99 + 23 x_100 <= 1014
Bounds
Binaries
 x_1 x_2 x_3 x_4 x_5 x_6 x_7 x_8 x_9 x_10 x_11 x_12 x_13 x_14 x_15 x_16
 x_17 x_18 x_19 x_20 x_21 x_22 x_23 x_24 x_25 x_26 x_27 x_28 x_29 x_30 x_31
 x_32 x_33 x_34 x_35 x_36 x_37 x_38 x_39 x_40 x_41 x_42 x_43 x_44 x_45 x_46
 x_47 x_48 x_49 x_50 x_51 x_52 x_53 x_54 x_55 x_56 x_57 x_58 x_59 x_60 x_61
 x_62 x_63 x_64 x_65 x_66 x_67 x_68 x_69 x_70 x_71 x_72 x_73 x_74 x_75 x_76
 x_77 x_78 x_79 x_80 x_81 x_82 x_83 x_84 x_85 x_86 x_87 x_88 x_89 x_90 x_91
 x_92 x_93 x_94 x_95 x_96 x_97 x_98 x_99 x_100
End
